(declare-const x0 Bool)
(declare-const x1 Bool)
(declare-const x2 Bool)
(declare-const x3 Bool)
(declare-const x4 Bool)
(declare-const x5 Bool)
(declare-const x6 Bool)
(declare-const x7 Bool)
(declare-const x8 Bool)
(declare-const x9 Bool)
(declare-const x10 Bool)
(declare-const x11 Bool)
(declare-const x12 Bool)
(declare-const x13 Bool)
(declare-const x14 Bool)
(declare-const x15 Bool)
(declare-const x16 Bool)
(declare-const x17 Bool)
(declare-const x18 Bool)
(declare-const x19 Bool)
(declare-const x20 Bool)
(declare-const x21 Bool)
(declare-const x22 Bool)
(declare-const x23 Bool)
(declare-const x24 Bool)
(declare-const x25 Bool)
(declare-const x26 Bool)
(declare-const x27 Bool)
(declare-const x28 Bool)
(declare-const x29 Bool)
(declare-const x30 Bool)
(declare-const x31 Bool)
(declare-const x32 Bool)
(declare-const x33 Bool)
(declare-const x34 Bool)
(declare-const x35 Bool)
(declare-const x36 Bool)
(declare-const x37 Bool)
(declare-const x38 Bool)
(declare-const x39 Bool)
(declare-const x40 Bool)
(declare-const x41 Bool)
(declare-const x42 Bool)
(declare-const x43 Bool)
(declare-const x44 Bool)
(declare-const x45 Bool)
(declare-const x46 Bool)
(declare-const x47 Bool)
(declare-const x48 Bool)
(declare-const x49 Bool)
(declare-const x50 Bool)
(declare-const x51 Bool)
(declare-const x52 Bool)
(declare-const x53 Bool)
(declare-const x54 Bool)
(declare-const x55 Bool)
(declare-const x56 Bool)
(declare-const x57 Bool)
(declare-const x58 Bool)
(declare-const x59 Bool)
(declare-const x60 Bool)
(assert (and (= (or false (or x7 false)) (= x15 (= x29 x6))) (= x56 (and false (= true x19)))))
(assert (and false x23))
(assert (= x53 (or false false)))
(assert (= (or (= false false) x17) (and true (and true true))))
(assert (or (and (= true false) (or x19 true)) (and (or false true) (and (and (or true false) (or x52 x47)) (= (or x17 false) (and x11 x1))))))
(assert (= x3 false))
(assert (and (and (= x39 false) (or (or true x24) (and true true))) x44))
(assert (or (and x37 x55) (= x6 (= (and false x2) (= (or true (and true true)) (and false (= true x11)))))))
(assert (and (or true x45) (or x23 x57)))
(assert (and (or (and x31 (or x1 false)) (or x0 false)) (or x35 true)))
(check-sat)
